p cep 113 3848
1 4
1 5
1 6
1 7
1 9
1 10
1 12
1 14
1 15
1 16
1 17
1 19
1 20
1 21
1 26
1 28
1 29
1 31
1 32
1 33
1 34
1 35
1 36
1 37
1 38
1 39
1 40
1 41
1 42
1 43
1 45
1 48
1 49
1 52
1 57
1 61
1 62
1 69
1 72
1 73
1 74
1 77
1 78
1 79
1 80
1 81
1 82
1 84
1 85
1 88
1 90
1 91
1 92
1 94
1 96
1 100
1 101
1 102
1 104
1 106
1 109
1 110
1 111
2 4
2 5
2 10
2 12
2 14
2 15
2 16
2 17
2 19
2 20
2 26
2 29
2 32
2 38
2 39
2 40
2 41
2 45
2 49
2 51
2 57
2 72
2 74
2 81
2 82
2 84
2 85
2 90
2 91
2 93
2 96
2 100
2 112
3 4
3 5
3 7
3 8
3 9
3 10
3 12
3 14
3 15
3 16
3 17
3 19
3 20
3 21
3 22
3 23
3 25
3 26
3 27
3 28
3 29
3 30
3 31
3 32
3 33
3 34
3 35
3 36
3 37
3 38
3 39
3 40
3 42
3 43
3 45
3 46
3 47
3 48
3 51
3 52
3 54
3 55
3 56
3 58
3 59
3 60
3 61
3 62
3 65
3 67
3 69
3 70
3 72
3 73
3 74
3 75
3 76
3 77
3 78
3 79
3 80
3 81
3 82
3 84
3 85
3 86
3 87
3 88
3 89
3 90
3 92
3 93
3 94
3 96
3 97
3 98
3 99
3 100
3 101
3 103
3 104
3 106
3 109
3 110
3 111
3 112
4 5
4 7
4 9
4 10
4 11
4 12
4 14
4 15
4 16
4 17
4 19
4 20
4 21
4 22
4 26
4 28
4 29
4 30
4 31
4 32
4 33
4 34
4 35
4 36
4 37
4 38
4 39
4 40
4 41
4 42
4 43
4 45
4 47
4 48
4 49
4 50
4 51
4 52
4 53
4 55
4 56
4 57
4 59
4 60
4 61
4 62
4 63
4 66
4 67
4 69
4 70
4 72
4 73
4 74
4 75
4 76
4 77
4 78
4 79
4 80
4 81
4 82
4 83
4 84
4 85
4 86
4 87
4 88
4 90
4 91
4 92
4 93
4 94
4 95
4 96
4 97
4 98
4 99
4 100
4 101
4 102
4 104
4 106
4 107
4 108
4 110
4 111
4 112
4 113
5 6
5 7
5 8
5 9
5 10
5 12
5 14
5 15
5 16
5 17
5 18
5 19
5 20
5 21
5 22
5 23
5 24
5 25
5 26
5 27
5 28
5 29
5 30
5 31
5 32
5 33
5 34
5 35
5 36
5 38
5 39
5 40
5 41
5 42
5 43
5 45
5 49
5 50
5 51
5 54
5 56
5 57
5 59
5 60
5 61
5 62
5 63
5 67
5 69
5 72
5 73
5 74
5 75
5 77
5 78
5 79
5 80
5 81
5 82
5 83
5 84
5 85
5 86
5 87
5 88
5 89
5 90
5 91
5 92
5 93
5 94
5 95
5 96
5 97
5 98
5 99
5 100
5 101
5 102
5 104
5 106
5 107
5 108
5 109
5 110
5 111
5 112
5 113
6 9
6 10
6 12
6 14
6 15
6 16
6 17
6 20
6 22
6 28
6 29
6 31
6 32
6 33
6 35
6 39
6 40
6 42
6 43
6 45
6 57
6 72
6 73
6 74
6 77
6 78
6 79
6 80
6 81
6 82
6 84
6 85
6 86
6 88
6 90
6 92
6 96
6 100
6 102
6 106
6 110
7 10
7 11
7 12
7 13
7 14
7 15
7 16
7 17
7 19
7 20
7 21
7 22
7 24
7 25
7 26
7 28
7 29
7 30
7 31
7 32
7 33
7 34
7 35
7 36
7 37
7 38
7 39
7 40
7 41
7 42
7 43
7 45
7 48
7 49
7 50
7 51
7 52
7 53
7 56
7 57
7 59
7 60
7 62
7 63
7 66
7 67
7 68
7 69
7 71
7 72
7 73
7 74
7 75
7 78
7 79
7 81
7 82
7 83
7 84
7 85
7 86
7 87
7 88
7 89
7 90
7 91
7 92
7 93
7 94
7 96
7 97
7 98
7 99
7 100
7 101
7 104
7 109
7 110
7 111
7 113
8 10
8 12
8 16
8 19
8 23
8 25
8 26
8 27
8 28
8 32
8 33
8 35
8 38
8 40
8 46
8 54
8 58
8 59
8 60
8 61
8 65
8 67
8 74
8 75
8 81
8 82
8 84
8 87
8 89
8 93
8 96
8 99
8 101
8 103
8 104
8 110
8 111
9 10
9 12
9 14
9 15
9 16
9 17
9 19
9 20
9 21
9 24
9 29
9 31
9 32
9 33
9 35
9 39
9 40
9 41
9 42
9 45
9 49
9 50
9 51
9 57
9 61
9 66
9 72
9 73
9 74
9 75
9 77
9 78
9 80
9 81
9 82
9 84
9 85
9 88
9 90
9 96
9 100
9 101
9 106
9 107
9 110
10 11
10 12
10 13
10 14
10 15
10 16
10 17
10 19
10 20
10 21
10 22
10 23
10 24
10 25
10 26
10 27
10 28
10 29
10 30
10 31
10 32
10 33
10 34
10 35
10 36
10 37
10 38
10 39
10 40
10 41
10 42
10 43
10 44
10 45
10 47
10 48
10 49
10 50
10 51
10 52
10 53
10 54
10 55
10 56
10 57
10 58
10 59
10 60
10 61
10 62
10 63
10 64
10 66
10 67
10 68
10 69
10 70
10 71
10 72
10 73
10 74
10 75
10 76
10 77
10 78
10 79
10 80
10 81
10 82
10 83
10 84
10 85
10 86
10 87
10 88
10 89
10 90
10 91
10 92
10 93
10 94
10 95
10 96
10 97
10 98
10 99
10 100
10 101
10 102
10 103
10 104
10 105
10 106
10 107
10 108
10 109
10 110
10 111
10 112
10 113
11 12
11 14
11 15
11 16
11 17
11 19
11 20
11 26
11 28
11 30
11 31
11 32
11 33
11 38
11 39
11 40
11 42
11 43
11 45
11 49
11 51
11 57
11 61
11 63
11 69
11 72
11 77
11 80
11 81
11 82
11 84
11 92
11 95
11 96
11 97
11 100
11 101
11 107
11 108
11 112
11 113
12 14
12 15
12 16
12 17
12 19
12 20
12 21
12 22
12 23
12 24
12 25
12 26
12 27
12 28
12 29
12 30
12 31
12 32
12 33
12 34
12 35
12 36
12 38
12 39
12 40
12 41
12 42
12 43
12 45
12 49
12 50
12 51
12 54
12 56
12 57
12 61
12 62
12 63
12 66
12 67
12 69
12 72
12 73
12 74
12 75
12 77
12 78
12 79
12 80
12 81
12 82
12 83
12 84
12 85
12 86
12 87
12 88
12 89
12 90
12 91
12 92
12 93
12 94
12 95
12 96
12 97
12 98
12 99
12 100
12 101
12 102
12 104
12 106
12 107
12 108
12 110
12 111
12 112
12 113
13 14
13 15
13 16
13 18
13 24
13 26
13 37
13 38
13 39
13 40
13 43
13 44
13 47
13 48
13 49
13 50
13 51
13 52
13 55
13 61
13 64
13 69
13 70
13 71
13 75
13 76
13 78
13 81
13 82
13 83
13 85
13 88
13 90
13 93
13 96
13 105
13 107
13 112
13 113
14 15
14 16
14 17
14 19
14 20
14 21
14 22
14 23
14 24
14 25
14 26
14 27
14 28
14 29
14 30
14 31
14 32
14 33
14 34
14 35
14 36
14 37
14 38
14 39
14 40
14 41
14 42
14 43
14 45
14 47
14 48
14 49
14 50
14 51
14 52
14 53
14 55
14 56
14 57
14 59
14 60
14 61
14 62
14 63
14 64
14 66
14 67
14 68
14 69
14 70
14 71
14 72
14 73
14 74
14 75
14 76
14 77
14 78
14 80
14 81
14 82
14 83
14 84
14 85
14 86
14 87
14 88
14 89
14 90
14 91
14 92
14 94
14 95
14 96
14 97
14 99
14 100
14 101
14 102
14 104
14 105
14 106
14 107
14 108
14 110
14 111
14 112
14 113
15 16
15 17
15 19
15 20
15 21
15 24
15 26
15 28
15 29
15 30
15 31
15 32
15 33
15 34
15 35
15 36
15 37
15 38
15 39
15 40
15 41
15 42
15 43
15 44
15 45
15 48
15 49
15 50
15 51
15 52
15 56
15 57
15 59
15 60
15 61
15 62
15 63
15 66
15 67
15 68
15 69
15 71
15 72
15 73
15 74
15 75
15 77
15 78
15 79
15 80
15 81
15 82
15 83
15 84
15 85
15 86
15 87
15 88
15 90
15 91
15 92
15 93
15 94
15 95
15 96
15 97
15 98
15 99
15 100
15 101
15 102
15 104
15 106
15 107
15 108
15 109
15 110
15 111
15 112
15 113
16 17
16 19
16 20
16 21
16 22
16 24
16 25
16 26
16 28
16 29
16 30
16 31
16 32
16 33
16 34
16 35
16 36
16 37
16 38
16 39
16 40
16 41
16 42
16 43
16 45
16 47
16 48
16 49
16 50
16 51
16 52
16 53
16 54
16 55
16 56
16 57
16 59
16 60
16 61
16 62
16 63
16 64
16 66
16 67
16 68
16 69
16 70
16 71
16 72
16 73
16 74
16 75
16 76
16 77
16 78
16 79
16 80
16 81
16 82
16 83
16 84
16 85
16 86
16 87
16 88
16 89
16 90
16 91
16 92
16 93
16 94
16 95
16 96
16 97
16 98
16 99
16 100
16 101
16 102
16 104
16 105
16 106
16 107
16 108
16 109
16 110
16 111
16 112
16 113
17 19
17 20
17 21
17 24
17 25
17 26
17 28
17 29
17 30
17 31
17 32
17 33
17 34
17 35
17 36
17 37
17 38
17 39
17 40
17 41
17 42
17 43
17 45
17 48
17 49
17 50
17 51
17 52
17 55
17 56
17 57
17 59
17 60
17 61
17 62
17 63
17 64
17 66
17 69
17 72
17 73
17 74
17 75
17 77
17 78
17 79
17 80
17 81
17 82
17 83
17 84
17 85
17 86
17 88
17 89
17 90
17 91
17 92
17 93
17 94
17 95
17 96
17 97
17 99
17 100
17 101
17 102
17 104
17 105
17 106
17 107
17 108
17 110
17 111
17 112
17 113
18 39
18 43
18 63
18 82
18 95
18 107
18 113
19 20
19 21
19 22
19 24
19 25
19 26
19 28
19 29
19 30
19 31
19 32
19 33
19 34
19 35
19 36
19 37
19 38
19 39
19 40
19 41
19 42
19 43
19 45
19 48
19 49
19 50
19 51
19 52
19 53
19 54
19 56
19 57
19 59
19 60
19 61
19 62
19 63
19 66
19 67
19 68
19 69
19 72
19 73
19 74
19 75
19 77
19 78
19 79
19 80
19 81
19 82
19 83
19 84
19 85
19 86
19 87
19 88
19 89
19 90
19 91
19 92
19 93
19 94
19 95
19 96
19 97
19 100
19 101
19 102
19 104
19 106
19 107
19 108
19 110
19 111
19 112
19 113
20 21
20 22
20 26
20 28
20 29
20 30
20 31
20 32
20 33
20 35
20 36
20 38
20 39
20 40
20 41
20 42
20 43
20 45
20 49
20 50
20 51
20 57
20 63
20 66
20 67
20 69
20 72
20 73
20 74
20 77
20 81
20 82
20 84
20 85
20 86
20 87
20 88
20 90
20 93
20 94
20 96
20 100
20 101
20 102
20 108
20 110
20 112
21 22
21 24
21 26
21 28
21 29
21 30
21 31
21 32
21 33
21 34
21 35
21 36
21 38
21 39
21 40
21 42
21 43
21 45
21 49
21 50
21 51
21 56
21 57
21 59
21 60
21 61
21 62
21 63
21 66
21 68
21 69
21 72
21 73
21 74
21 75
21 77
21 78
21 79
21 80
21 81
21 82
21 83
21 84
21 85
21 86
21 88
21 90
21 91
21 92
21 94
21 96
21 97
21 98
21 99
21 100
21 102
21 104
21 106
21 108
21 110
21 111
21 112
21 113
22 24
22 26
22 29
22 30
22 31
22 32
22 33
22 34
22 35
22 36
22 38
22 39
22 40
22 42
22 43
22 44
22 53
22 56
22 62
22 67
22 68
22 69
22 72
22 74
22 75
22 77
22 78
22 79
22 81
22 82
22 83
22 84
22 85
22 86
22 87
22 88
22 90
22 91
22 92
22 93
22 94
22 96
22 97
22 98
22 106
23 25
23 27
23 29
23 36
23 39
23 40
23 46
23 54
23 58
23 59
23 60
23 61
23 65
23 67
23 72
23 78
23 79
23 81
23 84
23 87
23 88
23 89
23 92
23 94
23 98
23 99
23 101
23 103
23 104
23 111
24 28
24 29
24 30
24 31
24 32
24 33
24 34
24 35
24 36
24 37
24 39
24 40
24 41
24 42
24 43
24 44
24 47
24 48
24 52
24 53
24 55
24 56
24 61
24 62
24 66
24 67
24 68
24 70
24 72
24 73
24 74
24 76
24 77
24 78
24 79
24 80
24 81
24 82
24 84
24 85
24 86
24 87
24 88
24 90
24 92
24 93
24 94
24 96
24 98
24 101
24 112
25 26
25 27
25 28
25 29
25 32
25 33
25 34
25 35
25 36
25 39
25 40
25 45
25 46
25 51
25 54
25 56
25 57
25 58
25 59
25 60
25 61
25 65
25 66
25 67
25 69
25 72
25 74
25 75
25 78
25 82
25 84
25 87
25 88
25 89
25 94
25 96
25 97
25 98
25 99
25 100
25 101
25 103
25 104
25 106
25 110
25 111
26 28
26 29
26 30
26 31
26 32
26 33
26 34
26 35
26 36
26 37
26 38
26 39
26 40
26 41
26 42
26 43
26 45
26 48
26 49
26 50
26 51
26 52
26 54
26 56
26 57
26 59
26 60
26 62
26 63
26 66
26 67
26 69
26 72
26 73
26 74
26 75
26 77
26 78
26 80
26 81
26 82
26 84
26 85
26 86
26 87
26 88
26 89
26 90
26 91
26 92
26 93
26 94
26 95
26 96
26 97
26 98
26 99
26 100
26 101
26 104
26 106
26 107
26 108
26 110
26 111
26 112
26 113
27 29
27 36
27 39
27 40
27 46
27 54
27 58
27 59
27 60
27 61
27 65
27 67
27 72
27 78
27 79
27 81
27 84
27 87
27 88
27 89
27 92
27 94
27 98
27 99
27 101
27 103
27 104
27 111
28 29
28 30
28 31
28 32
28 33
28 34
28 35
28 36
28 37
28 38
28 39
28 40
28 41
28 42
28 43
28 45
28 48
28 49
28 50
28 51
28 52
28 53
28 54
28 55
28 56
28 57
28 59
28 60
28 61
28 62
28 63
28 66
28 67
28 69
28 71
28 72
28 73
28 74
28 75
28 77
28 78
28 79
28 80
28 81
28 82
28 83
28 84
28 85
28 86
28 87
28 88
28 89
28 90
28 91
28 92
28 94
28 95
28 96
28 97
28 98
28 99
28 100
28 101
28 102
28 104
28 106
28 107
28 108
28 109
28 110
28 111
28 112
28 113
29 30
29 31
29 32
29 33
29 34
29 35
29 36
29 38
29 39
29 40
29 41
29 42
29 43
29 45
29 47
29 49
29 50
29 51
29 55
29 56
29 57
29 59
29 60
29 61
29 62
29 63
29 66
29 67
29 68
29 69
29 70
29 72
29 73
29 74
29 75
29 76
29 77
29 78
29 79
29 80
29 81
29 82
29 83
29 84
29 85
29 86
29 87
29 88
29 89
29 90
29 91
29 92
29 93
29 94
29 95
29 96
29 97
29 98
29 99
29 100
29 101
29 102
29 104
29 106
29 107
29 110
29 111
29 112
29 113
30 31
30 32
30 33
30 34
30 35
30 36
30 38
30 39
30 40
30 42
30 43
30 44
30 45
30 47
30 50
30 51
30 53
30 55
30 56
30 57
30 61
30 62
30 63
30 68
30 69
30 70
30 71
30 72
30 74
30 75
30 76
30 78
30 79
30 81
30 82
30 83
30 84
30 85
30 86
30 88
30 91
30 92
30 93
30 94
30 96
30 97
30 98
30 99
30 100
30 101
30 104
30 106
30 108
30 110
30 111
30 112
31 32
31 33
31 34
31 35
31 36
31 37
31 38
31 39
31 40
31 42
31 43
31 44
31 45
31 47
31 48
31 51
31 52
31 53
31 55
31 56
31 57
31 59
31 60
31 61
31 62
31 63
31 67
31 69
31 70
31 71
31 72
31 73
31 74
31 76
31 77
31 78
31 79
31 81
31 82
31 83
31 84
31 85
31 86
31 87
31 88
31 90
31 91
31 92
31 93
31 94
31 96
31 97
31 98
31 100
31 101
31 102
31 104
31 106
31 110
31 111
31 112
31 113
32 33
32 34
32 35
32 36
32 38
32 39
32 40
32 41
32 42
32 43
32 45
32 49
32 50
32 51
32 53
32 54
32 56
32 57
32 59
32 60
32 61
32 62
32 63
32 66
32 67
32 68
32 69
32 71
32 72
32 73
32 74
32 75
32 77
32 78
32 79
32 80
32 81
32 82
32 83
32 84
32 85
32 86
32 87
32 88
32 89
32 90
32 91
32 92
32 93
32 94
32 95
32 96
32 97
32 98
32 99
32 100
32 101
32 102
32 104
32 105
32 106
32 107
32 108
32 109
32 110
32 111
32 112
32 113
33 34
33 35
33 36
33 38
33 39
33 40
33 42
33 43
33 45
33 49
33 50
33 51
33 54
33 56
33 57
33 59
33 60
33 61
33 62
33 63
33 64
33 66
33 67
33 68
33 69
33 71
33 72
33 73
33 74
33 75
33 77
33 78
33 79
33 80
33 81
33 82
33 83
33 84
33 85
33 86
33 87
33 88
33 89
33 90
33 91
33 92
33 93
33 94
33 95
33 96
33 97
33 98
33 99
33 100
33 101
33 102
33 104
33 105
33 106
33 107
33 108
33 110
33 111
33 112
33 113
34 35
34 36
34 38
34 39
34 40
34 42
34 43
34 44
34 45
34 50
34 51
34 53
34 56
34 57
34 59
34 60
34 62
34 63
34 66
34 67
34 68
34 69
34 72
34 73
34 74
34 78
34 79
34 81
34 82
34 83
34 84
34 85
34 86
34 87
34 88
34 89
34 90
34 91
34 92
34 93
34 94
34 95
34 96
34 97
34 98
34 99
34 100
34 101
34 104
34 106
34 110
34 111
34 112
35 36
35 38
35 39
35 40
35 41
35 42
35 43
35 44
35 45
35 47
35 49
35 50
35 51
35 53
35 54
35 55
35 56
35 57
35 59
35 60
35 61
35 62
35 63
35 64
35 67
35 68
35 69
35 70
35 71
35 72
35 73
35 74
35 75
35 76
35 77
35 78
35 79
35 80
35 81
35 82
35 83
35 84
35 85
35 86
35 87
35 88
35 89
35 90
35 91
35 92
35 93
35 94
35 95
35 96
35 97
35 98
35 99
35 100
35 101
35 102
35 104
35 105
35 106
35 107
35 108
35 110
35 111
35 112
35 113
36 38
36 39
36 40
36 42
36 43
36 45
36 47
36 50
36 51
36 53
36 55
36 56
36 59
36 60
36 61
36 62
36 63
36 66
36 67
36 68
36 69
36 70
36 71
36 72
36 73
36 74
36 75
36 76
36 77
36 78
36 79
36 80
36 81
36 82
36 83
36 84
36 85
36 86
36 87
36 88
36 89
36 90
36 91
36 92
36 93
36 94
36 96
36 98
36 99
36 100
36 101
36 102
36 104
36 106
36 108
36 111
36 112
36 113
37 38
37 39
37 42
37 43
37 44
37 45
37 47
37 48
37 49
37 50
37 51
37 52
37 55
37 57
37 59
37 60
37 61
37 64
37 70
37 71
37 73
37 74
37 75
37 76
37 78
37 80
37 81
37 82
37 83
37 85
37 88
37 93
37 95
37 96
37 102
37 105
37 107
37 112
37 113
38 39
38 40
38 41
38 42
38 43
38 45
38 48
38 49
38 50
38 51
38 52
38 54
38 56
38 57
38 59
38 60
38 62
38 63
38 66
38 67
38 69
38 72
38 73
38 74
38 75
38 77
38 78
38 79
38 80
38 81
38 82
38 84
38 85
38 86
38 87
38 88
38 90
38 91
38 92
38 93
38 94
38 95
38 96
38 97
38 98
38 99
38 100
38 101
38 104
38 106
38 107
38 108
38 110
38 111
38 112
39 40
39 41
39 42
39 43
39 45
39 48
39 49
39 50
39 51
39 52
39 55
39 56
39 57
39 59
39 60
39 61
39 62
39 63
39 66
39 67
39 68
39 69
39 70
39 71
39 72
39 73
39 74
39 75
39 77
39 78
39 79
39 80
39 81
39 82
39 83
39 84
39 85
39 86
39 87
39 88
39 89
39 90
39 91
39 92
39 94
39 95
39 96
39 97
39 98
39 99
39 100
39 101
39 102
39 104
39 106
39 107
39 108
39 109
39 110
39 111
39 112
39 113
40 41
40 42
40 43
40 45
40 47
40 49
40 50
40 51
40 53
40 54
40 55
40 56
40 57
40 59
40 60
40 61
40 62
40 63
40 66
40 67
40 68
40 69
40 70
40 71
40 72
40 73
40 74
40 75
40 76
40 77
40 78
40 80
40 81
40 82
40 83
40 84
40 85
40 86
40 87
40 88
40 89
40 90
40 91
40 92
40 93
40 94
40 95
40 96
40 97
40 98
40 99
40 100
40 101
40 102
40 104
40 106
40 107
40 108
40 110
40 111
40 112
40 113
41 42
41 43
41 45
41 49
41 51
41 57
41 59
41 60
41 67
41 69
41 70
41 72
41 73
41 74
41 77
41 78
41 79
41 81
41 82
41 84
41 85
41 87
41 88
41 90
41 91
41 93
41 96
41 99
41 101
41 104
41 110
41 111
41 112
41 113
42 43
42 44
42 45
42 47
42 48
42 50
42 51
42 52
42 53
42 55
42 56
42 57
42 59
42 60
42 61
42 62
42 63
42 67
42 68
42 69
42 70
42 71
42 72
42 73
42 74
42 75
42 76
42 77
42 78
42 79
42 80
42 81
42 82
42 83
42 84
42 85
42 86
42 87
42 88
42 90
42 91
42 92
42 93
42 94
42 96
42 97
42 98
42 99
42 100
42 101
42 102
42 104
42 105
42 106
42 107
42 108
42 110
42 111
42 112
42 113
43 45
43 47
43 48
43 49
43 50
43 51
43 52
43 53
43 55
43 56
43 57
43 59
43 60
43 61
43 62
43 63
43 66
43 69
43 70
43 71
43 72
43 73
43 74
43 75
43 76
43 77
43 78
43 80
43 81
43 82
43 83
43 84
43 85
43 86
43 88
43 90
43 91
43 92
43 93
43 94
43 95
43 96
43 97
43 98
43 99
43 100
43 101
43 102
43 104
43 106
43 107
43 108
43 109
43 110
43 111
43 112
43 113
44 47
44 48
44 50
44 52
44 55
44 64
44 70
44 71
44 74
44 75
44 76
44 81
44 82
44 83
44 85
44 86
44 88
44 93
44 105
44 112
44 113
45 47
45 48
45 49
45 50
45 51
45 52
45 53
45 55
45 56
45 57
45 59
45 60
45 61
45 62
45 63
45 64
45 66
45 67
45 69
45 70
45 71
45 72
45 73
45 74
45 75
45 76
45 77
45 78
45 79
45 80
45 81
45 82
45 83
45 84
45 85
45 86
45 87
45 88
45 89
45 90
45 91
45 92
45 93
45 94
45 95
45 96
45 97
45 98
45 99
45 100
45 101
45 102
45 104
45 105
45 106
45 107
45 108
45 110
45 111
45 112
45 113
46 54
46 58
46 65
46 67
46 78
46 81
46 82
46 87
46 89
46 92
46 103
46 104
46 111
47 48
47 50
47 52
47 55
47 59
47 60
47 61
47 62
47 63
47 64
47 68
47 70
47 71
47 76
47 78
47 81
47 82
47 83
47 85
47 88
47 93
47 94
47 96
47 99
47 105
47 107
47 112
48 49
48 50
48 51
48 52
48 55
48 57
48 59
48 60
48 61
48 64
48 70
48 71
48 73
48 74
48 75
48 76
48 78
48 81
48 82
48 83
48 85
48 88
48 93
48 95
48 96
48 102
48 105
48 107
48 112
48 113
49 50
49 52
49 55
49 57
49 59
49 60
49 61
49 69
49 72
49 73
49 74
49 75
49 77
49 81
49 82
49 84
49 85
49 88
49 90
49 91
49 93
49 94
49 96
49 99
49 100
49 101
49 102
49 104
49 108
49 110
49 111
49 112
50 51
50 52
50 55
50 57
50 59
50 60
50 61
50 62
50 63
50 64
50 69
50 70
50 71
50 72
50 73
50 74
50 75
50 76
50 77
50 78
50 81
50 82
50 83
50 84
50 88
50 90
50 91
50 92
50 93
50 94
50 96
50 98
50 100
50 101
50 102
50 105
50 107
50 110
50 112
51 52
51 56
51 57
51 59
51 60
51 61
51 63
51 69
51 72
51 73
51 74
51 75
51 77
51 78
51 79
51 80
51 81
51 82
51 83
51 84
51 85
51 88
51 89
51 90
51 91
51 92
51 93
51 94
51 96
51 98
51 99
51 100
51 101
51 102
51 104
51 106
51 110
51 111
51 112
51 113
52 55
52 57
52 59
52 60
52 61
52 64
52 70
52 71
52 73
52 74
52 75
52 76
52 78
52 80
52 81
52 82
52 83
52 85
52 88
52 93
52 95
52 96
52 102
52 105
52 107
52 112
52 113
53 62
53 68
53 72
53 74
53 81
53 82
53 84
53 86
53 88
53 93
53 101
54 58
54 59
54 60
54 61
54 65
54 67
54 74
54 75
54 81
54 82
54 84
54 87
54 89
54 93
54 96
54 99
54 101
54 103
54 104
54 110
54 111
55 59
55 60
55 62
55 63
55 64
55 68
55 70
55 71
55 74
55 76
55 78
55 81
55 82
55 83
55 84
55 85
55 86
55 88
55 91
55 93
55 96
55 105
55 107
55 112
56 57
56 59
56 60
56 62
56 67
56 68
56 69
56 72
56 73
56 74
56 78
56 79
56 81
56 82
56 84
56 85
56 86
56 87
56 88
56 89
56 90
56 91
56 92
56 93
56 94
56 96
56 97
56 98
56 99
56 100
56 101
56 104
56 110
56 111
57 59
57 60
57 61
57 64
57 66
57 67
57 69
57 72
57 73
57 74
57 75
57 77
57 78
57 80
57 81
57 82
57 83
57 84
57 85
57 87
57 88
57 89
57 90
57 91
57 92
57 93
57 94
57 96
57 97
57 98
57 101
57 104
57 105
57 106
57 108
57 110
57 111
57 112
57 113
58 59
58 60
58 65
58 67
58 78
58 84
58 87
58 89
58 92
58 98
58 99
58 101
58 103
58 104
58 111
59 60
59 63
59 66
59 68
59 69
59 70
59 72
59 74
59 75
59 76
59 78
59 79
59 81
59 82
59 83
59 84
59 85
59 86
59 88
59 89
59 90
59 91
59 92
59 93
59 94
59 96
59 98
59 99
59 101
59 103
59 104
59 106
59 107
59 110
59 111
59 113
60 63
60 66
60 68
60 69
60 70
60 72
60 74
60 75
60 76
60 78
60 79
60 81
60 82
60 83
60 84
60 85
60 86
60 88
60 89
60 90
60 91
60 92
60 93
60 94
60 96
60 98
60 99
60 101
60 103
60 104
60 106
60 107
60 110
60 111
60 113
61 63
61 67
61 70
61 72
61 73
61 74
61 75
61 76
61 77
61 78
61 80
61 81
61 82
61 83
61 84
61 85
61 86
61 87
61 88
61 89
61 95
61 96
61 97
61 98
61 100
61 101
61 102
61 104
61 106
61 107
61 108
61 109
61 110
61 111
61 112
61 113
62 66
62 67
62 68
62 69
62 70
62 71
62 72
62 73
62 74
62 76
62 77
62 78
62 79
62 81
62 82
62 83
62 84
62 85
62 86
62 87
62 88
62 90
62 91
62 92
62 93
62 94
62 96
62 98
62 100
62 101
62 104
62 106
62 109
62 111
62 112
63 69
63 70
63 72
63 73
63 74
63 76
63 78
63 81
63 82
63 83
63 84
63 85
63 91
63 92
63 93
63 94
63 95
63 96
63 97
63 99
63 101
63 102
63 105
63 106
63 107
63 108
63 110
63 113
64 70
64 71
64 76
64 78
64 88
64 105
64 112
65 67
65 78
65 81
65 82
65 87
65 89
65 92
65 103
65 104
65 111
66 72
66 73
66 74
66 78
66 79
66 81
66 82
66 84
66 85
66 88
66 89
66 90
66 92
66 93
66 94
66 96
66 99
66 100
66 101
66 106
66 110
67 69
67 72
67 73
67 74
67 75
67 77
67 78
67 81
67 82
67 84
67 87
67 88
67 89
67 90
67 92
67 93
67 94
67 96
67 100
67 101
67 103
67 104
67 110
67 111
67 112
68 70
68 72
68 76
68 78
68 79
68 81
68 82
68 84
68 86
68 88
68 90
68 92
68 93
68 94
68 98
68 99
68 112
69 72
69 73
69 74
69 75
69 77
69 78
69 79
69 80
69 81
69 82
69 83
69 84
69 85
69 87
69 88
69 89
69 90
69 91
69 92
69 93
69 94
69 95
69 96
69 97
69 98
69 99
69 100
69 101
69 102
69 104
69 106
69 107
69 108
69 109
69 110
69 111
69 112
69 113
70 71
70 76
70 78
70 81
70 82
70 83
70 85
70 88
70 93
70 94
70 96
70 99
70 105
70 107
70 112
71 74
71 76
71 78
71 81
71 82
71 83
71 84
71 88
71 90
71 92
71 93
71 96
71 101
71 105
71 106
71 107
71 112
71 113
72 73
72 74
72 75
72 77
72 78
72 79
72 80
72 81
72 82
72 83
72 84
72 85
72 86
72 87
72 88
72 89
72 90
72 91
72 92
72 93
72 94
72 95
72 96
72 97
72 98
72 99
72 100
72 101
72 102
72 104
72 106
72 107
72 108
72 110
72 111
72 112
72 113
73 74
73 75
73 77
73 78
73 79
73 80
73 81
73 82
73 83
73 84
73 85
73 87
73 88
73 90
73 91
73 94
73 96
73 98
73 100
73 101
73 102
73 104
73 106
73 109
73 110
73 111
74 75
74 77
74 78
74 79
74 80
74 81
74 82
74 83
74 84
74 85
74 86
74 87
74 88
74 89
74 90
74 91
74 92
74 93
74 94
74 95
74 96
74 97
74 98
74 99
74 100
74 101
74 102
74 104
74 106
74 107
74 108
74 109
74 110
74 111
74 112
74 113
75 77
75 78
75 80
75 81
75 82
75 83
75 84
75 85
75 86
75 87
75 88
75 89
75 90
75 91
75 92
75 94
75 95
75 96
75 98
75 100
75 101
75 104
75 106
75 110
75 111
75 112
75 113
76 78
76 81
76 82
76 83
76 85
76 88
76 93
76 94
76 96
76 99
76 105
76 107
76 112
77 78
77 80
77 81
77 82
77 84
77 85
77 87
77 90
77 96
77 98
77 99
77 100
77 102
77 107
77 110
77 112
78 79
78 81
78 82
78 83
78 84
78 85
78 86
78 87
78 88
78 89
78 90
78 91
78 92
78 93
78 94
78 96
78 97
78 98
78 99
78 100
78 101
78 103
78 104
78 105
78 106
78 110
78 111
78 112
79 81
79 82
79 84
79 85
79 86
79 88
79 90
79 92
79 93
79 94
79 96
79 98
79 99
79 100
79 101
79 110
80 81
80 82
80 84
80 85
80 88
80 96
80 97
80 101
80 102
80 107
80 108
80 110
80 112
81 82
81 83
81 84
81 85
81 86
81 87
81 88
81 90
81 91
81 92
81 93
81 94
81 95
81 96
81 97
81 98
81 99
81 100
81 101
81 102
81 104
81 106
81 107
81 108
81 109
81 110
81 111
81 112
81 113
82 83
82 84
82 85
82 86
82 87
82 88
82 89
82 90
82 91
82 92
82 93
82 94
82 95
82 96
82 97
82 98
82 99
82 100
82 101
82 102
82 104
82 106
82 107
82 108
82 109
82 110
82 111
82 112
82 113
83 84
83 86
83 88
83 90
83 91
83 92
83 96
83 97
83 99
83 100
83 101
83 106
83 107
83 112
83 113
84 85
84 86
84 87
84 88
84 89
84 90
84 91
84 92
84 93
84 94
84 95
84 96
84 97
84 98
84 99
84 100
84 101
84 102
84 103
84 104
84 106
84 107
84 108
84 109
84 110
84 111
84 112
84 113
85 86
85 88
85 90
85 91
85 92
85 93
85 94
85 95
85 96
85 99
85 100
85 101
85 102
85 104
85 106
85 110
85 111
85 112
86 88
86 90
86 91
86 92
86 93
86 94
86 96
86 97
86 98
86 99
86 101
86 106
86 112
87 88
87 89
87 90
87 92
87 93
87 94
87 96
87 100
87 101
87 103
87 104
87 110
87 111
87 112
88 89
88 90
88 91
88 92
88 93
88 94
88 96
88 97
88 98
88 99
88 100
88 101
88 104
88 105
88 106
88 110
88 111
88 112
89 94
89 96
89 97
89 98
89 99
89 100
89 101
89 103
89 104
89 106
89 110
89 111
90 91
90 92
90 93
90 94
90 96
90 97
90 98
90 99
90 100
90 101
90 104
90 106
90 108
90 110
90 111
90 113
91 92
91 95
91 96
91 97
91 98
91 99
91 100
91 101
91 105
91 106
91 110
91 112
91 113
92 93
92 94
92 96
92 97
92 98
92 99
92 100
92 101
92 103
92 104
92 106
92 110
92 111
92 112
92 113
93 94
93 96
93 98
93 99
93 100
93 101
93 104
93 106
93 110
93 111
93 112
94 96
94 97
94 98
94 99
94 100
94 101
94 104
94 107
94 109
94 110
94 111
94 112
95 97
95 101
95 107
95 108
95 109
95 113
96 97
96 98
96 99
96 100
96 101
96 102
96 104
96 106
96 107
96 108
96 110
96 111
96 112
96 113
97 101
97 104
97 107
97 108
97 110
97 111
97 113
98 99
98 101
98 103
98 104
98 106
98 110
98 111
98 113
99 100
99 101
99 103
99 104
99 106
99 107
99 110
99 111
99 113
100 101
100 102
100 104
100 106
100 108
100 110
100 111
100 112
101 103
101 104
101 106
101 108
101 110
101 111
101 112
101 113
102 105
102 106
102 110
103 104
103 111
104 110
104 111
105 112
106 108
106 110
106 112
106 113
107 108
107 109
107 110
107 113
109 113
110 111
110 112
110 113
112 113
